Instance: E076-07s.dat
Class:  4
   75 --- number of customers (no depot)
   17 --- number of vehicles
  168 --- number of items
Capacity - height - width of vehicles
   220     40     20
Node - x - y - demand
    0    40.0    40.0     0.0
    1    22.0    22.0    18.0
    2    36.0    26.0    26.0
    3    21.0    45.0    11.0
    4    45.0    35.0    30.0
    5    55.0    20.0    21.0
    6    33.0    34.0    19.0
    7    50.0    50.0    15.0
    8    55.0    45.0    16.0
    9    26.0    59.0    29.0
   10    40.0    66.0    26.0
   11    55.0    65.0    37.0
   12    35.0    51.0    16.0
   13    62.0    35.0    12.0
   14    62.0    57.0    31.0
   15    62.0    24.0     8.0
   16    21.0    36.0    19.0
   17    33.0    44.0    20.0
   18     9.0    56.0    13.0
   19    62.0    48.0    15.0
   20    66.0    14.0    22.0
   21    44.0    13.0    28.0
   22    26.0    13.0    12.0
   23    11.0    28.0     6.0
   24     7.0    43.0    27.0
   25    17.0    64.0    14.0
   26    41.0    46.0    18.0
   27    55.0    34.0    17.0
   28    35.0    16.0    29.0
   29    52.0    26.0    13.0
   30    43.0    26.0    22.0
   31    31.0    76.0    25.0
   32    22.0    53.0    28.0
   33    26.0    29.0    27.0
   34    50.0    40.0    19.0
   35    55.0    50.0    10.0
   36    54.0    10.0    12.0
   37    60.0    15.0    14.0
   38    47.0    66.0    24.0
   39    30.0    60.0    16.0
   40    30.0    50.0    33.0
   41    12.0    17.0    15.0
   42    15.0    14.0    11.0
   43    16.0    19.0    18.0
   44    21.0    48.0    17.0
   45    50.0    30.0    21.0
   46    51.0    42.0    27.0
   47    50.0    15.0    19.0
   48    48.0    21.0    20.0
   49    12.0    38.0     5.0
   50    15.0    56.0    22.0
   51    29.0    39.0    12.0
   52    54.0    38.0    19.0
   53    55.0    57.0    22.0
   54    67.0    41.0    16.0
   55    10.0    70.0     7.0
   56     6.0    25.0    26.0
   57    65.0    27.0    14.0
   58    40.0    60.0    21.0
   59    70.0    64.0    24.0
   60    64.0     4.0    13.0
   61    36.0     6.0    15.0
   62    30.0    20.0    18.0
   63    20.0    30.0    11.0
   64    15.0     5.0    28.0
   65    50.0    70.0     9.0
   66    57.0    72.0    37.0
   67    45.0    42.0    30.0
   68    38.0    33.0    10.0
   69    50.0     4.0     8.0
   70    66.0     8.0    11.0
   71    59.0     5.0     3.0
   72    35.0    60.0     1.0
   73    27.0    24.0     6.0
   74    40.0    20.0    10.0
   75    40.0    37.0    20.0
Node - number of items - h - w for each item
    0   0
    1   1    8    4
    2   3    7    6   24    3   16    3
    3   1   13    2
    4   3    6   14    8    9    6    7
    5   1    7    7
    6   4    6   14    5   11    7    5   29    4
    7   4    5   13   16    4   16    3    5    2
    8   2   14    6   13    2
    9   2    4   11   22    3
   10   3    5   12   12    7   14    5
   11   1   27    3
   12   1   29    4
   13   1   16    3
   14   4   14    6   26    4   22    3   10    2
   15   1    6    9
   16   3    7   10    5    6   25    4
   17   1   25    3
   18   3   30    3   24    2    7    2
   19   1   27    2
   20   2   15    6    4    6
   21   4    7   12    4    7   14    5   29    2
   22   3    5   11   13    5   13    2
   23   2    4    7   13    4
   24   4    6   13    7    9   13    5   30    4
   25   4    5   11   22    4    9    3   31    2
   26   3    5    6    6    3   10    2
   27   2   15    4   11    4
   28   4    6   10    8    5   30    4   26    4
   29   3    8   13    9    7   18    3
   30   1   14    4
   31   4    5    9    5    8   22    3   12    3
   32   4    5    6    5    5    7    4   21    3
   33   2    6    8    5    5
   34   2    4    5   23    2
   35   1    7   13
   36   4    7   12    5   11    7    8   24    3
   37   1    7    4
   38   1    7    9
   39   4    7    5   20    4   15    3   14    2
   40   3   10    5    7    5   27    4
   41   2   16    4   10    2
   42   2    6    7    5    7
   43   1    7    6
   44   3    6    7   20    3   15    2
   45   1   29    3
   46   1    7    6
   47   3    7    9   14    8   23    3
   48   3    5    6   14    3   14    2
   49   1    8    8
   50   1   29    3
   51   2    7    8   28    4
   52   4    6   12    7    9    4    7   25    4
   53   1   15    2
   54   1   18    3
   55   1   23    2
   56   2   11    6   19    2
   57   2    4   13   20    3
   58   4    8    8    7    7   11    4    5    4
   59   2    4    6    4    6
   60   1    5    4
   61   3    7   13    9    7   10    4
   62   3    8    5   12    4   21    2
   63   2   21    4    4    4
   64   3    5   12   16    5   30    3
   65   1   13    4
   66   4    4    8   14    7   13    6   17    4
   67   1    5    8
   68   3    8    8    7    7   17    3
   69   4   14    4   27    3   22    3   25    2
   70   1   15    2
   71   1    7    6
   72   2    5    7   12    6
   73   2   13    8    9    6
   74   1    8   11
   75   1    4    9
